p tw 121 18151 2 
1 3 
1 4 
1 5 
1 6 
1 7 
1 8 
1 9 
1 10 
1 11 
1 12 
1 17 
1 23 
1 29 
1 34 
1 36 
1 45 
1 48 
1 56 
1 66 
1 67 
1 74 
1 78 
1 82 
1 89 
1 98 
1 100 
1 108 
1 111 
1 112 
2 3 
2 4 
2 5 
2 6 
2 7 
2 8 
2 9 
2 10 
2 11 
2 13 
2 14 
2 23 
2 24 
2 35 
2 44 
2 46 
2 54 
2 57 
2 63 
2 68 
2 72 
2 79 
2 84 
2 90 
2 97 
2 101 
2 104 
2 112 
2 114 
3 4 
3 5 
3 6 
3 7 
3 8 
3 9 
3 10 
3 11 
3 14 
3 19 
3 25 
3 32 
3 36 
3 37 
3 47 
3 53 
3 58 
3 60 
3 69 
3 73 
3 78 
3 80 
3 90 
3 91 
3 102 
3 105 
3 113 
3 121 
4 5 
4 6 
4 7 
4 8 
4 9 
4 10 
4 11 
4 15 
4 16 
4 26 
4 30 
4 37 
4 43 
4 47 
4 48 
4 57 
4 59 
4 70 
4 75 
4 81 
4 88 
4 92 
4 94 
4 100 
4 103 
4 114 
4 117 
5 6 
5 7 
5 8 
5 9 
5 10 
5 11 
5 15 
5 16 
5 25 
5 27 
5 35 
5 38 
5 45 
5 49 
5 60 
5 61 
5 71 
5 76 
5 82 
5 86 
5 93 
5 99 
5 104 
5 106 
5 115 
5 118 
6 7 
6 8 
6 9 
6 10 
6 11 
6 17 
6 18 
6 27 
6 28 
6 39 
6 42 
6 46 
6 50 
6 56 
6 61 
6 69 
6 72 
6 83 
6 85 
6 92 
6 94 
6 105 
6 110 
6 116 
6 120 
7 8 
7 9 
7 10 
7 11 
7 18 
7 22 
7 24 
7 29 
7 39 
7 40 
7 51 
7 52 
7 62 
7 65 
7 71 
7 73 
7 80 
7 84 
7 89 
7 95 
7 103 
7 106 
7 117 
7 119 
8 9 
8 10 
8 11 
8 12 
8 19 
8 26 
8 30 
8 40 
8 41 
8 52 
8 55 
8 63 
8 64 
8 68 
8 74 
8 83 
8 85 
8 93 
8 96 
8 107 
8 109 
8 113 
8 118 
9 10 
9 11 
9 13 
9 20 
9 28 
9 31 
9 41 
9 42 
9 49 
9 53 
9 59 
9 64 
9 75 
9 77 
9 86 
9 87 
9 95 
9 97 
9 102 
9 108 
9 111 
9 119 
10 11 
10 20 
10 21 
10 32 
10 33 
10 34 
10 43 
10 50 
10 54 
10 62 
10 65 
10 70 
10 76 
10 79 
10 87 
10 91 
10 98 
10 107 
10 109 
10 115 
10 120 
11 21 
11 22 
11 31 
11 33 
11 38 
11 44 
11 51 
11 55 
11 58 
11 66 
11 67 
11 77 
11 81 
11 88 
11 96 
11 99 
11 101 
11 110 
11 116 
11 121 
12 13 
12 14 
12 15 
12 16 
12 17 
12 18 
12 19 
12 20 
12 21 
12 22 
12 23 
12 26 
12 34 
12 40 
12 45 
12 55 
12 56 
12 64 
12 67 
12 68 
12 78 
12 83 
12 89 
12 93 
12 100 
12 109 
12 111 
12 113 
13 14 
13 15 
13 16 
13 17 
13 18 
13 19 
13 20 
13 21 
13 22 
13 24 
13 28 
13 35 
13 41 
13 46 
13 49 
13 57 
13 59 
13 68 
13 77 
13 79 
13 87 
13 90 
13 95 
13 101 
13 102 
13 111 
13 112 
14 15 
14 16 
14 17 
14 18 
14 19 
14 20 
14 21 
14 22 
14 23 
14 25 
14 36 
14 44 
14 47 
14 54 
14 58 
14 63 
14 69 
14 72 
14 80 
14 84 
14 91 
14 97 
14 102 
14 104 
14 113 
14 114 
15 16 
15 17 
15 18 
15 19 
15 20 
15 21 
15 22 
15 25 
15 26 
15 35 
15 37 
15 45 
15 48 
15 59 
15 61 
15 70 
15 76 
15 81 
15 86 
15 92 
15 99 
15 103 
15 106 
15 114 
15 118 
16 17 
16 18 
16 19 
16 20 
16 21 
16 22 
16 27 
16 30 
16 38 
16 43 
16 47 
16 49 
16 57 
16 60 
16 71 
16 75 
16 82 
16 88 
16 93 
16 94 
16 100 
16 104 
16 115 
16 117 
17 18 
17 19 
17 20 
17 21 
17 22 
17 28 
17 29 
17 36 
17 39 
17 48 
17 50 
17 61 
17 66 
17 72 
17 74 
17 82 
17 83 
17 94 
17 98 
17 105 
17 108 
17 112 
17 116 
18 19 
18 20 
18 21 
18 22 
18 27 
18 29 
18 40 
18 42 
18 46 
18 51 
18 56 
18 62 
18 69 
18 73 
18 84 
18 85 
18 92 
18 95 
18 106 
18 110 
18 117 
18 120 
19 20 
19 21 
19 22 
19 30 
19 32 
19 37 
19 41 
19 52 
19 53 
19 60 
19 63 
19 73 
19 74 
19 78 
19 85 
19 90 
19 96 
19 105 
19 107 
19 118 
19 121 
20 21 
20 22 
20 31 
20 33 
20 34 
20 42 
20 50 
20 53 
20 62 
20 64 
20 70 
20 75 
20 79 
20 86 
20 91 
20 97 
20 107 
20 108 
20 115 
20 119 
21 22 
21 31 
21 32 
21 38 
21 43 
21 51 
21 54 
21 58 
21 65 
21 67 
21 76 
21 81 
21 87 
21 96 
21 98 
21 101 
21 109 
21 116 
21 120 
22 24 
22 33 
22 39 
22 44 
22 52 
22 55 
22 65 
22 66 
22 71 
22 77 
22 80 
22 88 
22 89 
22 99 
22 103 
22 110 
22 119 
22 121 
23 24 
23 25 
23 26 
23 27 
23 28 
23 29 
23 30 
23 31 
23 32 
23 33 
23 34 
23 44 
23 45 
23 54 
23 56 
23 63 
23 67 
23 72 
23 78 
23 84 
23 89 
23 97 
23 100 
23 104 
23 111 
23 114 
24 25 
24 26 
24 27 
24 28 
24 29 
24 30 
24 31 
24 32 
24 33 
24 35 
24 39 
24 46 
24 52 
24 57 
24 65 
24 68 
24 71 
24 79 
24 80 
24 89 
24 90 
24 101 
24 103 
24 112 
24 119 
25 26 
25 27 
25 28 
25 29 
25 30 
25 31 
25 32 
25 33 
25 35 
25 36 
25 45 
25 47 
25 58 
25 61 
25 69 
25 76 
25 80 
25 86 
25 91 
25 99 
25 102 
25 106 
25 113 
25 118 
26 27 
26 28 
26 29 
26 30 
26 31 
26 32 
26 33 
26 37 
26 40 
26 48 
26 55 
26 59 
26 64 
26 68 
26 70 
26 81 
26 83 
26 92 
26 93 
26 103 
26 109 
26 113 
26 114 
27 28 
27 29 
27 30 
27 31 
27 32 
27 33 
27 38 
27 42 
27 46 
27 49 
27 56 
27 60 
27 69 
27 71 
27 82 
27 85 
27 92 
27 93 
27 104 
27 110 
27 115 
27 120 
28 29 
28 30 
28 31 
28 32 
28 33 
28 39 
28 41 
28 49 
28 50 
28 59 
28 61 
28 72 
28 77 
28 83 
28 87 
28 94 
28 95 
28 102 
28 105 
28 111 
28 116 
29 30 
29 31 
29 32 
29 33 
29 36 
29 40 
29 48 
29 51 
29 62 
29 66 
29 73 
29 74 
29 82 
29 84 
29 95 
29 98 
29 106 
29 108 
29 112 
29 117 
30 31 
30 32 
30 33 
30 41 
30 43 
30 47 
30 52 
30 57 
30 63 
30 74 
30 75 
30 85 
30 88 
30 94 
30 96 
30 100 
30 107 
30 117 
30 118 
31 32 
31 33 
31 38 
31 42 
31 51 
31 53 
31 58 
31 64 
31 67 
31 75 
31 81 
31 86 
31 96 
31 97 
31 101 
31 108 
31 116 
31 119 
32 33 
32 37 
32 43 
32 53 
32 54 
32 60 
32 65 
32 73 
32 76 
32 78 
32 87 
32 90 
32 98 
32 105 
32 109 
32 120 
32 121 
33 34 
33 44 
33 50 
33 55 
33 62 
33 66 
33 70 
33 77 
33 79 
33 88 
33 91 
33 99 
33 107 
33 110 
33 115 
33 121 
34 35 
34 36 
34 37 
34 38 
34 39 
34 40 
34 41 
34 42 
34 43 
34 44 
34 45 
34 50 
34 56 
34 62 
34 67 
34 70 
34 78 
34 79 
34 89 
34 91 
34 100 
34 107 
34 111 
34 115 
35 36 
35 37 
35 38 
35 39 
35 40 
35 41 
35 42 
35 43 
35 44 
35 45 
35 46 
35 57 
35 61 
35 68 
35 76 
35 79 
35 86 
35 90 
35 99 
35 101 
35 106 
35 112 
35 118 
36 37 
36 38 
36 39 
36 40 
36 41 
36 42 
36 43 
36 44 
36 47 
36 48 
36 58 
36 66 
36 69 
36 74 
36 80 
36 82 
36 91 
36 98 
36 102 
36 108 
36 112 
36 113 
37 38 
37 39 
37 40 
37 41 
37 42 
37 43 
37 44 
37 48 
37 53 
37 59 
37 60 
37 70 
37 73 
37 78 
37 81 
37 90 
37 92 
37 103 
37 105 
37 114 
37 121 
38 39 
38 40 
38 41 
38 42 
38 43 
38 44 
38 49 
38 51 
38 58 
38 60 
38 67 
38 71 
38 81 
38 82 
38 93 
38 96 
38 101 
38 104 
38 115 
38 116 
39 40 
39 41 
39 42 
39 43 
39 44 
39 50 
39 52 
39 61 
39 65 
39 71 
39 72 
39 80 
39 83 
39 89 
39 94 
39 103 
39 105 
39 116 
39 119 
40 41 
40 42 
40 43 
40 44 
40 51 
40 55 
40 62 
40 64 
40 68 
40 73 
40 83 
40 84 
40 93 
40 95 
40 106 
40 109 
40 113 
40 117 
41 42 
41 43 
41 44 
41 49 
41 52 
41 59 
41 63 
41 74 
41 77 
41 85 
41 87 
41 95 
41 96 
41 102 
41 107 
41 111 
41 118 
42 43 
42 44 
42 46 
42 53 
42 56 
42 64 
42 69 
42 75 
42 85 
42 86 
42 92 
42 97 
42 108 
42 110 
42 119 
42 120 
43 44 
43 47 
43 54 
43 57 
43 65 
43 75 
43 76 
43 87 
43 88 
43 94 
43 98 
43 100 
43 109 
43 117 
43 120 
44 54 
44 55 
44 63 
44 66 
44 72 
44 77 
44 84 
44 88 
44 97 
44 99 
44 104 
44 110 
44 114 
44 121 
45 46 
45 47 
45 48 
45 49 
45 50 
45 51 
45 52 
45 53 
45 54 
45 55 
45 56 
45 61 
45 67 
45 76 
45 78 
45 86 
45 89 
45 99 
45 100 
45 106 
45 111 
45 118 
46 47 
46 48 
46 49 
46 50 
46 51 
46 52 
46 53 
46 54 
46 55 
46 56 
46 57 
46 68 
46 69 
46 79 
46 85 
46 90 
46 92 
46 101 
46 110 
46 112 
46 120 
47 48 
47 49 
47 50 
47 51 
47 52 
47 53 
47 54 
47 55 
47 57 
47 58 
47 69 
47 75 
47 80 
47 88 
47 91 
47 94 
47 100 
47 102 
47 113 
47 117 
48 49 
48 50 
48 51 
48 52 
48 53 
48 54 
48 55 
48 59 
48 66 
48 70 
48 74 
48 81 
48 82 
48 92 
48 98 
48 103 
48 108 
48 112 
48 114 
49 50 
49 51 
49 52 
49 53 
49 54 
49 55 
49 59 
49 60 
49 71 
49 77 
49 82 
49 87 
49 93 
49 95 
49 102 
49 104 
49 111 
49 115 
50 51 
50 52 
50 53 
50 54 
50 55 
50 61 
50 62 
50 70 
50 72 
50 79 
50 83 
50 91 
50 94 
50 105 
50 107 
50 115 
50 116 
51 52 
51 53 
51 54 
51 55 
51 58 
51 62 
51 67 
51 73 
51 81 
51 84 
51 95 
51 96 
51 101 
51 106 
51 116 
51 117 
52 53 
52 54 
52 55 
52 63 
52 65 
52 71 
52 74 
52 80 
52 85 
52 89 
52 96 
52 103 
52 107 
52 118 
52 119 
53 54 
53 55 
53 60 
53 64 
53 73 
53 75 
53 78 
53 86 
53 90 
53 97 
53 105 
53 108 
53 119 
53 121 
54 55 
54 63 
54 65 
54 72 
54 76 
54 84 
54 87 
54 97 
54 98 
54 104 
54 109 
54 114 
54 120 
55 64 
55 66 
55 68 
55 77 
55 83 
55 88 
55 93 
55 99 
55 109 
55 110 
55 113 
55 121 
56 57 
56 58 
56 59 
56 60 
56 61 
56 62 
56 63 
56 64 
56 65 
56 66 
56 67 
56 69 
56 78 
56 85 
56 89 
56 92 
56 100 
56 110 
56 111 
56 120 
57 58 
57 59 
57 60 
57 61 
57 62 
57 63 
57 64 
57 65 
57 66 
57 68 
57 75 
57 79 
57 88 
57 90 
57 94 
57 100 
57 101 
57 112 
57 117 
58 59 
58 60 
58 61 
58 62 
58 63 
58 64 
58 65 
58 66 
58 67 
58 69 
58 80 
58 81 
58 91 
58 96 
58 101 
58 102 
58 113 
58 116 
59 60 
59 61 
59 62 
59 63 
59 64 
59 65 
59 66 
59 70 
59 77 
59 81 
59 87 
59 92 
59 95 
59 102 
59 103 
59 111 
59 114 
60 61 
60 62 
60 63 
60 64 
60 65 
60 66 
60 71 
60 73 
60 78 
60 82 
60 90 
60 93 
60 104 
60 105 
60 115 
60 121 
61 62 
61 63 
61 64 
61 65 
61 66 
61 72 
61 76 
61 83 
61 86 
61 94 
61 99 
61 105 
61 106 
61 116 
61 118 
62 63 
62 64 
62 65 
62 66 
62 70 
62 73 
62 79 
62 84 
62 91 
62 95 
62 106 
62 107 
62 115 
62 117 
63 64 
63 65 
63 66 
63 72 
63 74 
63 84 
63 85 
63 96 
63 97 
63 104 
63 107 
63 114 
63 118 
64 65 
64 66 
64 68 
64 75 
64 83 
64 86 
64 93 
64 97 
64 108 
64 109 
64 113 
64 119 
65 66 
65 71 
65 76 
65 80 
65 87 
65 89 
65 98 
65 103 
65 109 
65 119 
65 120 
66 74 
66 77 
66 82 
66 88 
66 98 
66 99 
66 108 
66 110 
66 112 
66 121 
67 68 
67 69 
67 70 
67 71 
67 72 
67 73 
67 74 
67 75 
67 76 
67 77 
67 78 
67 81 
67 89 
67 96 
67 100 
67 101 
67 111 
67 116 
68 69 
68 70 
68 71 
68 72 
68 73 
68 74 
68 75 
68 76 
68 77 
68 79 
68 83 
68 90 
68 93 
68 101 
68 109 
68 112 
68 113 
69 70 
69 71 
69 72 
69 73 
69 74 
69 75 
69 76 
69 77 
69 80 
69 85 
69 91 
69 92 
69 102 
69 110 
69 113 
69 120 
70 71 
70 72 
70 73 
70 74 
70 75 
70 76 
70 77 
70 79 
70 81 
70 91 
70 92 
70 103 
70 107 
70 114 
70 115 
71 72 
71 73 
71 74 
71 75 
71 76 
71 77 
71 80 
71 82 
71 89 
71 93 
71 103 
71 104 
71 115 
71 119 
72 73 
72 74 
72 75 
72 76 
72 77 
72 83 
72 84 
72 94 
72 97 
72 104 
72 105 
72 114 
72 116 
73 74 
73 75 
73 76 
73 77 
73 78 
73 84 
73 90 
73 95 
73 105 
73 106 
73 117 
73 121 
74 75 
74 76 
74 77 
74 82 
74 85 
74 96 
74 98 
74 107 
74 108 
74 112 
74 118 
75 76 
75 77 
75 86 
75 88 
75 94 
75 97 
75 100 
75 108 
75 117 
75 119 
76 77 
76 86 
76 87 
76 98 
76 99 
76 106 
76 109 
76 118 
76 120 
77 87 
77 88 
77 95 
77 99 
77 102 
77 110 
77 111 
77 121 
78 79 
78 80 
78 81 
78 82 
78 83 
78 84 
78 85 
78 86 
78 87 
78 88 
78 89 
78 90 
78 100 
78 105 
78 111 
78 121 
79 80 
79 81 
79 82 
79 83 
79 84 
79 85 
79 86 
79 87 
79 88 
79 90 
79 91 
79 101 
79 107 
79 112 
79 115 
80 81 
80 82 
80 83 
80 84 
80 85 
80 86 
80 87 
80 88 
80 89 
80 91 
80 102 
80 103 
80 113 
80 119 
81 82 
81 83 
81 84 
81 85 
81 86 
81 87 
81 88 
81 92 
81 96 
81 101 
81 103 
81 114 
81 116 
82 83 
82 84 
82 85 
82 86 
82 87 
82 88 
82 93 
82 98 
82 104 
82 108 
82 112 
82 115 
83 84 
83 85 
83 86 
83 87 
83 88 
83 93 
83 94 
83 105 
83 109 
83 113 
83 116 
84 85 
84 86 
84 87 
84 88 
84 95 
84 97 
84 104 
84 106 
84 114 
84 117 
85 86 
85 87 
85 88 
85 92 
85 96 
85 107 
85 110 
85 118 
85 120 
86 87 
86 88 
86 97 
86 99 
86 106 
86 108 
86 118 
86 119 
87 88 
87 95 
87 98 
87 102 
87 109 
87 111 
87 120 
88 94 
88 99 
88 100 
88 110 
88 117 
88 121 
89 90 
89 91 
89 92 
89 93 
89 94 
89 95 
89 96 
89 97 
89 98 
89 99 
89 100 
89 103 
89 111 
89 119 
90 91 
90 92 
90 93 
90 94 
90 95 
90 96 
90 97 
90 98 
90 99 
90 101 
90 105 
90 112 
90 121 
91 92 
91 93 
91 94 
91 95 
91 96 
91 97 
91 98 
91 99 
91 102 
91 107 
91 113 
91 115 
92 93 
92 94 
92 95 
92 96 
92 97 
92 98 
92 99 
92 103 
92 110 
92 114 
92 120 
93 94 
93 95 
93 96 
93 97 
93 98 
93 99 
93 104 
93 109 
93 113 
93 115 
94 95 
94 96 
94 97 
94 98 
94 99 
94 100 
94 105 
94 116 
94 117 
95 96 
95 97 
95 98 
95 99 
95 102 
95 106 
95 111 
95 117 
96 97 
96 98 
96 99 
96 101 
96 107 
96 116 
96 118 
97 98 
97 99 
97 104 
97 108 
97 114 
97 119 
98 99 
98 108 
98 109 
98 112 
98 120 
99 106 
99 110 
99 118 
99 121 
100 101 
100 102 
100 103 
100 104 
100 105 
100 106 
100 107 
100 108 
100 109 
100 110 
100 111 
100 117 
101 102 
101 103 
101 104 
101 105 
101 106 
101 107 
101 108 
101 109 
101 110 
101 112 
101 116 
102 103 
102 104 
102 105 
102 106 
102 107 
102 108 
102 109 
102 110 
102 111 
102 113 
103 104 
103 105 
103 106 
103 107 
103 108 
103 109 
103 110 
103 114 
103 119 
104 105 
104 106 
104 107 
104 108 
104 109 
104 110 
104 114 
104 115 
105 106 
105 107 
105 108 
105 109 
105 110 
105 116 
105 121 
106 107 
106 108 
106 109 
106 110 
106 117 
106 118 
107 108 
107 109 
107 110 
107 115 
107 118 
108 109 
108 110 
108 112 
108 119 
109 110 
109 113 
109 120 
110 120 
110 121 
111 112 
111 113 
111 114 
111 115 
111 116 
111 117 
111 118 
111 119 
111 120 
111 121 
112 113 
112 114 
112 115 
112 116 
112 117 
112 118 
112 119 
112 120 
112 121 
113 114 
113 115 
113 116 
113 117 
113 118 
113 119 
113 120 
113 121 
114 115 
114 116 
114 117 
114 118 
114 119 
114 120 
114 121 
115 116 
115 117 
115 118 
115 119 
115 120 
115 121 
116 117 
116 118 
116 119 
116 120 
116 121 
117 118 
117 119 
117 120 
117 121 
118 119 
118 120 
118 121 
119 120 
119 121 
120 121 
